1395980
0 23 54636
23 16 276644
16 9 52693
9 11 116496
11 7 61690
7 26 98591
26 6 7369
6 2 5029
2 22 112202
22 20 92633
20 14 19591
14 5 10550
5 29 7944
29 1 6203
1 27 6275
27 8 10293
8 3 8394
3 17 7921
17 24 7367
24 12 1644
12 4 6993
4 13 14271
13 28 53996
28 15 55904
15 10 17049
10 25 13666
25 21 11584
21 18 8374
18 19 59142
19 0 190821
